(set-info :smt-lib-version 2.7)
(set-logic QF_NIA)
(set-info :source  | 
Generated by: Johannes Bauer
Generated on: 2026-06-18
Generator: mgm A12 Test Data Generator
Application: ELSTER
Target solver: Z3, Yices2, CVC5
Script is based on the ELSTER form: capital gains tax registration (A / KapEStInvStG)
Characteristic of the form: easy.
In this script, all terms of the form (* x1 x2 x3 ...) are in the form (* x1 c2 c3 ...),
all terms of the form (div x y) are in the form (div x c) and the symbol mod is exclusively used in the form (mod x c),
where x, y, and x1, x2, x3 ... are free constants and c, c2, c3 ... are terms in the form n or (-n) for some numeral n.
The script starts with the base constraints, which define a valid data set for the corresponding form. After the first (push 1), control constraints follow.
The goal of the control constraints in this script is to fill up a data set with values, after the characteristics of the high test coverage were placed.
number variables: 134, number constraints: 163
"https://www.elster.de/eportal/start?locale=en_US"
"https://www.mgm-tp.com/q12-tdg.html"
"https://a12.ai/public-sector"
|)
(set-info :license "https://creativecommons.org/licenses/by/4.0/")
(set-info :category "industrial")
(set-info :major-phase |variable declarations|)
(declare-fun I1-i () Int)
(declare-fun I2-N () Int)
(declare-fun B3-F () Bool)
(declare-fun I3-i () Int)
(declare-fun B4-F () Bool)
(declare-fun B5-F () Bool)
(declare-fun B6-F () Bool)
(declare-fun B7-F () Bool)
(declare-fun I7-y () Int)
(declare-fun B8-F () Bool)
(declare-fun I9-N () Int)
(declare-fun I10-y () Int)
(declare-fun I10-m () Int)
(declare-fun I10-d () Int)
(declare-fun I11-y () Int)
(declare-fun I11-m () Int)
(declare-fun I11-d () Int)
(declare-fun I12 () Int)
(declare-fun I13-s-y () Int)
(declare-fun I13-s-m () Int)
(declare-fun I13-s-d () Int)
(declare-fun I13-e-y () Int)
(declare-fun I13-e-m () Int)
(declare-fun I13-e-d () Int)
(declare-fun I14-y () Int)
(declare-fun I14-m () Int)
(declare-fun I14-d () Int)
(declare-fun I15-y () Int)
(declare-fun I15-m () Int)
(declare-fun I15-d () Int)
(declare-fun I16 () Int)
(declare-fun I17 () Int)
(declare-fun I18 () Int)
(declare-fun I19 () Int)
(declare-fun I20 () Int)
(declare-fun I21 () Int)
(declare-fun I22-s-y () Int)
(declare-fun I22-s-m () Int)
(declare-fun I22-s-d () Int)
(declare-fun I22-e-y () Int)
(declare-fun I22-e-m () Int)
(declare-fun I22-e-d () Int)
(declare-fun I23-y () Int)
(declare-fun I23-d () Int)
(declare-fun I24-y () Int)
(declare-fun I24-m () Int)
(declare-fun I24-d () Int)
(declare-fun I25 () Int)
(declare-fun I26 () Int)
(declare-fun I27 () Int)
(declare-fun I28 () Int)
(declare-fun I29 () Int)
(declare-fun I30 () Int)
(declare-fun I31-N () Int)
(declare-fun I32-y () Int)
(declare-fun I32-m () Int)
(declare-fun I32-d () Int)
(declare-fun B33-F () Bool)
(declare-fun I33-y () Int)
(declare-fun I33-m () Int)
(declare-fun I33-d () Int)
(declare-fun B34-F () Bool)
(declare-fun I34-y () Int)
(declare-fun I34-m () Int)
(declare-fun I34-d () Int)
(declare-fun B35-F () Bool)
(declare-fun B36-F () Bool)
(declare-fun B37-F () Bool)
(declare-fun B38-F () Bool)
(declare-fun B39-F () Bool)
(declare-fun I39 () Int)
(declare-fun I40 () Int)
(declare-fun I41 () Int)
(declare-fun I42 () Int)
(declare-fun I43 () Int)
(declare-fun I44-y () Int)
(declare-fun I44-m () Int)
(declare-fun I44-d () Int)
(declare-fun I45 () Int)
(declare-fun I46 () Int)
(declare-fun I47 () Int)
(declare-fun I48 () Int)
(declare-fun I49 () Int)
(declare-fun I50 () Int)
(declare-fun I51 () Int)
(declare-fun I52 () Int)
(declare-fun B53-F () Bool)
(declare-fun B54-F () Bool)
(declare-fun I54 () Int)
(declare-fun B55-F () Bool)
(declare-fun I55 () Int)
(declare-fun B56-F () Bool)
(declare-fun I56 () Int)
(declare-fun B57-F () Bool)
(declare-fun I57-y () Int)
(declare-fun I57-m () Int)
(declare-fun I57-d () Int)
(declare-fun B58-F () Bool)
(declare-fun B59-F () Bool)
(declare-fun I59 () Int)
(declare-fun B60-F () Bool)
(declare-fun I60 () Int)
(declare-fun B61-F () Bool)
(declare-fun I61 () Int)
(declare-fun B62-F () Bool)
(declare-fun B63-F () Bool)
(declare-fun B64-F () Bool)
(declare-fun I64 () Int)
(declare-fun B65-F () Bool)
(declare-fun I65 () Int)
(declare-fun B66-F () Bool)
(declare-fun I66 () Int)
(declare-fun B67-F () Bool)
(declare-fun I67 () Int)
(declare-fun B68-F () Bool)
(declare-fun I68 () Int)
(declare-fun B69-F () Bool)
(declare-fun I69 () Int)
(declare-fun B70-F () Bool)
(declare-fun I70 () Int)
(declare-fun B71-F () Bool)
(declare-fun I71 () Int)
(declare-fun B72-F () Bool)
(declare-fun B73-F () Bool)
(declare-fun B74-F () Bool)
(declare-fun B75-F () Bool)
(declare-fun B76-F () Bool)
(declare-fun B77-F () Bool)
(declare-fun B78-F () Bool)
(declare-fun B79-F () Bool)
(declare-fun B80-F () Bool)
(declare-fun B81-F () Bool)
(declare-fun B82-F () Bool)
(declare-fun B83-F () Bool)
(set-info :major-phase |base constraints|)
(set-info :base-constraint-type ||)
(assert (or (= I16 0) (distinct I17 0)))
(assert (and (>= I22-s-y (- I22-e-y 1)) (or (distinct I22-s-y (- I22-e-y 1)) (>= I22-s-m I22-e-m)) (= I22-s-y (- I22-e-y 1)) (= I22-s-m I22-e-m) (>= I22-s-d (+ I22-e-d 1))))
(set-info :base-constraint-type |constraints defining hierarchy (group is filled, if a child is filled)|)
(assert (not (or B57-F B58-F)))
(assert (= B58-F (or B59-F B60-F)))
(assert (= B73-F (or B74-F B75-F)))
(assert (= B35-F (or B36-F B37-F B38-F B39-F)))
(assert (= B53-F (or B54-F B55-F B56-F)))
(assert (= B76-F (or B77-F B78-F)))
(assert (= B78-F (or B79-F B80-F B81-F B82-F)))
(set-info :base-constraint-type |domainconstraints number-fields|)
(assert (ite B59-F (and (<= I59 999999999999) (>= I59 0)) (= I59 0)))
(assert (ite B60-F (and (<= I60 999999999999) (>= I60 0)) (= I60 0)))
(assert (and (<= I12 999999999999) (>= I12 (- 999999999999))))
(assert (ite B37-F true false))
(assert (ite B38-F true false))
(assert (ite B39-F (and (<= I39 99999999999999) (>= I39 (- 99999999999999))) (= I39 0)))
(assert (and (<= I40 999999999999) (>= I40 (- 999999999999))))
(assert (and (<= I41 999999999999) (>= I41 (- 999999999999))))
(assert (and (<= I42 999999999999) (>= I42 (- 999999999999))))
(assert (and (<= I43 99999999999999) (>= I43 (- 99999999999999))))
(assert (and (<= I45 999999999999) (>= I45 0)))
(assert (and (<= I46 999999999999) (>= I46 0)))
(assert (and (<= I47 99999999999999) (>= I47 0)))
(assert (and (<= I48 999999999999) (>= I48 0)))
(assert (and (<= I49 999999999999) (>= I49 0)))
(assert (and (<= I50 99999999999999) (>= I50 0)))
(assert (and (<= I51 999999999999) (>= I51 0)))
(assert (and (<= I52 99999999999999) (>= I52 0)))
(assert (ite B54-F (and (<= I54 999999999999) (>= I54 (- 999999999999))) (= I54 0)))
(assert (ite B55-F (and (<= I55 999999999999) (>= I55 (- 999999999999))) (= I55 0)))
(assert (ite B56-F (and (<= I56 99999999999999) (>= I56 (- 99999999999999))) (= I56 0)))
(assert (and (<= I16 999999999999) (>= I16 (- 999999999999))))
(assert (and (<= I17 999999999999) (>= I17 (- 999999999999))))
(assert (and (<= I18 99999999999999) (>= I18 (- 99999999999999))))
(assert (and (<= I19 99999999999999) (>= I19 (- 99999999999999))))
(assert (and (<= I20 999999999999) (>= I20 (- 999999999999))))
(assert (and (<= I21 99999999999999) (>= I21 (- 99999999999999))))
(assert (and (<= I25 999999999999) (>= I25 (- 999999999999))))
(assert (and (<= I26 999999999999) (>= I26 (- 999999999999))))
(assert (and (<= I27 99999999999999) (>= I27 (- 99999999999999))))
(assert (and (<= I28 999999999999) (>= I28 (- 999999999999))))
(assert (and (<= I29 99999999999999) (>= I29 (- 99999999999999))))
(assert (and (<= I30 99999999999999) (>= I30 (- 99999999999999))))
(assert (ite B62-F true false))
(assert (ite B61-F (and (<= I61 99999999999999) (>= I61 (- 9999999999999))) (= I61 0)))
(assert (ite B63-F true false))
(assert (ite B64-F (and (<= I64 99999999999999) (>= I64 (- 9999999999999))) (= I64 0)))
(assert (ite B65-F (and (<= I65 99999999999999) (>= I65 (- 9999999999999))) (= I65 0)))
(assert (ite B66-F (and (<= I66 99999999999999) (>= I66 (- 9999999999999))) (= I66 0)))
(assert (ite B70-F (and (<= I70 99999999999999) (>= I70 (- 9999999999999))) (= I70 0)))
(assert (ite B67-F (and (<= I67 99999999999999) (>= I67 (- 9999999999999))) (= I67 0)))
(assert (ite B68-F (and (<= I68 99999999999999) (>= I68 (- 9999999999999))) (= I68 0)))
(assert (ite B69-F (and (<= I69 99999999999999) (>= I69 (- 9999999999999))) (= I69 0)))
(assert (ite B71-F (and (<= I71 99999999999999) (>= I71 (- 9999999999999))) (= I71 0)))
(assert (ite B72-F true false))
(set-info :base-constraint-type |domainconstraints date-fields|)
(assert (and (ite B57-F (and (> I57-y 1900) (< I57-y 2100)) (= I57-y 0)) (ite B57-F (and (> I57-m 0) (<= I57-m 12)) (= I57-m 0)) (ite B57-F (and (> I57-d 0) (<= I57-d (ite (or (= I57-m 0) (= I57-m 1) (= I57-m 3) (= I57-m 5) (= I57-m 7) (= I57-m 8) (= I57-m 10) (= I57-m 12)) 31 (ite (or (= I57-m 4) (= I57-m 6) (= I57-m 9) (= I57-m 11)) 30 (ite (= (mod I57-y 4) 0) 29 28))))) (= I57-d 0))))
(assert (ite B7-F (and (> I7-y 1900) (< I7-y 2100)) (= I7-y 0)))
(assert (and (> I11-y 1900) (< I11-y 2100) (> I11-m 0) (<= I11-m 12) (> I11-d 0) (<= I11-d (ite (or (= I11-m 0) (= I11-m 1) (= I11-m 3) (= I11-m 5) (= I11-m 7) (= I11-m 8) (= I11-m 10) (= I11-m 12)) 31 (ite (or (= I11-m 4) (= I11-m 6) (= I11-m 9) (= I11-m 11)) 30 (ite (= (mod I11-y 4) 0) 29 28))))))
(assert (and (> I10-y 1900) (< I10-y 2100) (> I10-m 0) (<= I10-m 12) (> I10-d 0) (<= I10-d (ite (or (= I10-m 0) (= I10-m 1) (= I10-m 3) (= I10-m 5) (= I10-m 7) (= I10-m 8) (= I10-m 10) (= I10-m 12)) 31 (ite (or (= I10-m 4) (= I10-m 6) (= I10-m 9) (= I10-m 11)) 30 (ite (= (mod I10-y 4) 0) 29 28))))))
(assert (and (ite B33-F (and (> I33-y 1900) (< I33-y 2100)) (= I33-y 0)) (ite B33-F (and (> I33-m 0) (<= I33-m 12)) (= I33-m 0)) (ite B33-F (and (> I33-d 0) (<= I33-d (ite (or (= I33-m 0) (= I33-m 1) (= I33-m 3) (= I33-m 5) (= I33-m 7) (= I33-m 8) (= I33-m 10) (= I33-m 12)) 31 (ite (or (= I33-m 4) (= I33-m 6) (= I33-m 9) (= I33-m 11)) 30 (ite (= (mod I33-y 4) 0) 29 28))))) (= I33-d 0))))
(assert (and (> I32-y 1900) (< I32-y 2100) (> I32-m 0) (<= I32-m 12) (> I32-d 0) (<= I32-d (ite (or (= I32-m 0) (= I32-m 1) (= I32-m 3) (= I32-m 5) (= I32-m 7) (= I32-m 8) (= I32-m 10) (= I32-m 12)) 31 (ite (or (= I32-m 4) (= I32-m 6) (= I32-m 9) (= I32-m 11)) 30 (ite (= (mod I32-y 4) 0) 29 28))))))
(assert (and (ite B34-F (and (> I34-y 1900) (< I34-y 2100)) (= I34-y 0)) (ite B34-F (and (> I34-m 0) (<= I34-m 12)) (= I34-m 0)) (ite B34-F (and (> I34-d 0) (<= I34-d (ite (or (= I34-m 0) (= I34-m 1) (= I34-m 3) (= I34-m 5) (= I34-m 7) (= I34-m 8) (= I34-m 10) (= I34-m 12)) 31 (ite (or (= I34-m 4) (= I34-m 6) (= I34-m 9) (= I34-m 11)) 30 (ite (= (mod I34-y 4) 0) 29 28))))) (= I34-d 0))))
(assert (and (> I44-y 1900) (< I44-y 2100) (> I44-m 0) (<= I44-m 12) (> I44-d 0) (<= I44-d (ite (or (= I44-m 0) (= I44-m 1) (= I44-m 3) (= I44-m 5) (= I44-m 7) (= I44-m 8) (= I44-m 10) (= I44-m 12)) 31 (ite (or (= I44-m 4) (= I44-m 6) (= I44-m 9) (= I44-m 11)) 30 (ite (= (mod I44-y 4) 0) 29 28))))))
(assert (and (> I15-y 1900) (< I15-y 2100) (> I15-m 0) (<= I15-m 12) (> I15-d 0) (<= I15-d (ite (or (= I15-m 0) (= I15-m 1) (= I15-m 3) (= I15-m 5) (= I15-m 7) (= I15-m 8) (= I15-m 10) (= I15-m 12)) 31 (ite (or (= I15-m 4) (= I15-m 6) (= I15-m 9) (= I15-m 11)) 30 (ite (= (mod I15-y 4) 0) 29 28))))))
(assert (and (> I14-y 1900) (< I14-y 2100) (> I14-m 0) (<= I14-m 12) (> I14-d 0) (<= I14-d (ite (or (= I14-m 0) (= I14-m 1) (= I14-m 3) (= I14-m 5) (= I14-m 7) (= I14-m 8) (= I14-m 10) (= I14-m 12)) 31 (ite (or (= I14-m 4) (= I14-m 6) (= I14-m 9) (= I14-m 11)) 30 (ite (= (mod I14-y 4) 0) 29 28))))))
(assert (or (< I13-s-y I13-e-y) (and (= I13-s-y I13-e-y) (< I13-s-m I13-e-m)) (and (= I13-s-y I13-e-y) (= I13-s-m I13-e-m) (<= I13-s-d I13-e-d))))
(assert (and (>= I13-e-d 1) (<= I13-e-d (ite (or (= I13-e-m 0) (= I13-e-m 1) (= I13-e-m 3) (= I13-e-m 5) (= I13-e-m 7) (= I13-e-m 8) (= I13-e-m 10) (= I13-e-m 12)) 31 (ite (or (= I13-e-m 4) (= I13-e-m 6) (= I13-e-m 9) (= I13-e-m 11)) 30 (ite (= (mod I13-e-y 4) 0) 29 28))))))
(assert (and (>= I13-e-m 1) (<= I13-e-m 12)))
(assert (and (>= I13-e-y 1901) (<= I13-e-y 2099)))
(assert (and (>= I13-s-d 1) (<= I13-s-d (ite (or (= I13-s-m 0) (= I13-s-m 1) (= I13-s-m 3) (= I13-s-m 5) (= I13-s-m 7) (= I13-s-m 8) (= I13-s-m 10) (= I13-s-m 12)) 31 (ite (or (= I13-s-m 4) (= I13-s-m 6) (= I13-s-m 9) (= I13-s-m 11)) 30 (ite (= (mod I13-s-y 4) 0) 29 28))))))
(assert (and (>= I13-s-m 1) (<= I13-s-m 12)))
(assert (and (>= I13-s-y 1901) (<= I13-s-y 2099)))
(assert (and (> I24-y 1900) (< I24-y 2100) (> I24-m 0) (<= I24-m 12) (> I24-d 0) (<= I24-d (ite (or (= I24-m 0) (= I24-m 1) (= I24-m 3) (= I24-m 5) (= I24-m 7) (= I24-m 8) (= I24-m 10) (= I24-m 12)) 31 (ite (or (= I24-m 4) (= I24-m 6) (= I24-m 9) (= I24-m 11)) 30 (ite (= (mod I24-y 4) 0) 29 28))))))
(assert (and (> I23-y 1900) (< I23-y 2100) (> I23-d 0) (<= I23-d 31)))
(assert (or (< I22-s-y I22-e-y) (and (= I22-s-y I22-e-y) (< I22-s-m I22-e-m)) (and (= I22-s-y I22-e-y) (= I22-s-m I22-e-m) (<= I22-s-d I22-e-d))))
(assert (and (>= I22-e-d 1) (<= I22-e-d (ite (or (= I22-e-m 0) (= I22-e-m 1) (= I22-e-m 3) (= I22-e-m 5) (= I22-e-m 7) (= I22-e-m 8) (= I22-e-m 10) (= I22-e-m 12)) 31 (ite (or (= I22-e-m 4) (= I22-e-m 6) (= I22-e-m 9) (= I22-e-m 11)) 30 (ite (= (mod I22-e-y 4) 0) 29 28))))))
(assert (and (>= I22-e-m 1) (<= I22-e-m 12)))
(assert (and (>= I22-e-y 1901) (<= I22-e-y 2099)))
(assert (and (>= I22-s-d 1) (<= I22-s-d (ite (or (= I22-s-m 0) (= I22-s-m 1) (= I22-s-m 3) (= I22-s-m 5) (= I22-s-m 7) (= I22-s-m 8) (= I22-s-m 10) (= I22-s-m 12)) 31 (ite (or (= I22-s-m 4) (= I22-s-m 6) (= I22-s-m 9) (= I22-s-m 11)) 30 (ite (= (mod I22-s-y 4) 0) 29 28))))))
(assert (and (>= I22-s-m 1) (<= I22-s-m 12)))
(assert (and (>= I22-s-y 1901) (<= I22-s-y 2099)))
(set-info :base-constraint-type |constraints for date-strategy|)
(assert (and (> I9-N 1900) (< I9-N 2100)))
(assert (and (> I9-N 1900) (< I9-N 2100)))
(set-info :base-constraint-type |domainconstraints string fields|)
(assert (and (>= I9-N 0) (<= I9-N 9999)))
(assert (and (>= I31-N 0) (<= I31-N 9999)))
(set-info :base-constraint-type |domainconstraints index-based string fields|)
(assert (or (= I2-N 0) (= I2-N 1)))
(assert (or (= I1-i 1) (= I1-i 2) (= I1-i 3) (= I1-i 4) (= I1-i 5) (= I1-i 6) (= I1-i 7) (= I1-i 8) (= I1-i 9) (= I1-i 10) (= I1-i 11) (= I1-i 12) (= I1-i 13) (= I1-i 14) (= I1-i 15)))
(assert (ite B3-F (or (= I3-i 1) (= I3-i 2) (= I3-i 3) (= I3-i 4) (= I3-i 5) (= I3-i 6) (= I3-i 7) (= I3-i 8) (= I3-i 9) (= I3-i 10) (= I3-i 11) (= I3-i 12) (= I3-i 13) (= I3-i 14) (= I3-i 15)) (= I3-i 0)))
(set-info :base-constraint-type |constraints from validation-rules|)
(assert (not (and B60-F B59-F (distinct I59 0) (distinct I60 (div (* I59 15) 100)))))
(assert (not (and B57-F (or (< I57-y 2025) (> I57-y 2025)))))
(assert (not (and (or B75-F B74-F) (not (and B75-F B74-F)))))
(assert (not (distinct (- 1) (+ I12 I17 I26 I28 I40 I42 I46 I49 I51 I55 (- 999948514094)))))
(assert (not (distinct (- 1) (+ I18 I19 I21 I27 I29 I30 I39 I43 I47 I50 I52 I56 (- 619387468)))))
(assert (not (and B7-F (or (< I7-y 2025) (> I7-y 2025)))))
(assert (not (or (> I11-y I10-y) (and (= I11-y I10-y) (> I11-m I10-m)) (and (= I11-y I10-y) (= I11-m I10-m) (> I11-d I10-d)))))
(assert (not (or (distinct I10-y (ite B7-F I7-y 0)) (distinct I10-m 10))))
(assert (not (>= (ite (and (>= I9-N 1) (<= I9-N 9999)) (+ (- I11-y I9-N) (ite (or (< I9-N I11-y) (and (= I9-N I11-y) (< 5 I11-m)) (and (= I9-N I11-y) (= 5 I11-m) (< 1 I11-d)) (and (= I9-N I11-y) (= 5 I11-m) (= 1 I11-d))) (ite (or (< 5 I11-m) (and (= 5 I11-m) (<= 1 I11-d))) 0 (- 1)) (ite (or (> 5 I11-m) (and (= 5 I11-m) (>= 1 I11-d))) 0 1))) 0) 1)))
(assert (not (< I10-y I9-N)))
(assert (not (> I9-N 2025)))
(assert (not (= I12 0)))
(assert (not (> (* I12 100) 85)))
(assert (not (> (ite (>= (- (- 619335213) (div (* I12 55) 10)) 0) (- (- 619335213) (div (* I12 55) 10)) (- (- (- 619335213) (div (* I12 55) 10)))) 100)))
(assert (not (and B33-F (not B34-F))))
(assert (not (and B33-F (or (< I33-y I32-y) (and (= I33-y I32-y) (< I33-m I32-m)) (and (= I33-y I32-y) (= I33-m I32-m) (< I33-d I32-d)) (and (= I33-y I32-y) (= I33-m I32-m) (= I33-d I32-d))))))
(assert (not (and B33-F (< I33-y I31-N))))
(assert (not (and B33-F B34-F (or (< I33-y I34-y) (and (= I33-y I34-y) (< I33-m I34-m)) (and (= I33-y I34-y) (= I33-m I34-m) (< I33-d I34-d))))))
(assert (not (and B33-F (or (< I33-y (ite B7-F I7-y 0)) (and (= I33-y (ite B7-F I7-y 0)) (< I33-m 10))))))
(assert (not (and B34-F (< I34-y 2023))))
(assert (not (distinct I32-y I31-N)))
(assert (not (or (> I32-y (ite B7-F I7-y 0)) (and (= I32-y (ite B7-F I7-y 0)) (> I32-m 10)))))
(assert (not (> I31-N 2025)))
(assert (not (or (and (or (< I32-y 2022) (and (= I32-y 2022) (< I32-m 10)) (and (= I32-y 2022) (= I32-m 10) (< I32-d 1))) (< I31-N 2025)) (and (or (> I32-y 2022) (and (= I32-y 2022) (> I32-m 10)) (and (= I32-y 2022) (= I32-m 10) (> I32-d 1)) (and (= I32-y 2022) (= I32-m 10) (= I32-d 1))) (or (and (< I31-N 2025) (= I31-N 2024)) (and (< I31-N 2025) (distinct I31-N 2024)))))))
(assert (not (or (and (= I32-y (ite B7-F I7-y 0)) (< I32-m 6)) (and (distinct I32-y (ite B7-F I7-y 0)) (< I32-y (- (ite B7-F I7-y 0) 1))) (and (distinct I32-y (ite B7-F I7-y 0)) (= I32-y (- (ite B7-F I7-y 0) 1)) (> I32-m 8) (< I32-m 18)) (and (distinct I32-y (ite B7-F I7-y 0)) (= I32-y (- (ite B7-F I7-y 0) 1)) (<= I32-m 8)))))
(assert (not (or (= I40 0) (and (distinct I41 0) (= I42 0)))))
(assert (not (and B38-F B39-F (> (ite (>= (- I39 (- 5499999999995)) 0) (- I39 (- 5499999999995)) (- (- I39 (- 5499999999995)))) 100))))
(assert (not (and (or B36-F B37-F B38-F B39-F) (not (and B36-F B37-F B38-F B39-F)))))
(assert (not (or (> (* I40 100) 85) (> (* I42 100) (+ (* I41 15) 100)))))
(assert (not (> (ite (>= (- (- 52254) (div (* I40 55) 10)) 0) (- (- 52254) (div (* I40 55) 10)) (- (- (- 52254) (div (* I40 55) 10)))) 100)))
(assert (not (> (ite (>= (- I43 (div (* I42 55) 10)) 0) (- I43 (div (* I42 55) 10)) (- (- I43 (div (* I42 55) 10)))) 100)))
(assert (not (or (and (distinct I45 0) (= I46 0)) (and (distinct I48 0) (= I49 0)) (= I51 0))))
(assert (not (> (ite (>= (- I47 (div (* I46 55) 10)) 0) (- I47 (div (* I46 55) 10)) (- (- I47 (div (* I46 55) 10)))) 100)))
(assert (not (or (> (* I46 100) (+ (* I45 15) 100)) (> (* I49 100) (+ (* I48 15) 100)) (> (* I51 100) 15000000000085))))
(assert (not (> (ite (>= (- I50 (div (* I49 55) 10)) 0) (- I50 (div (* I49 55) 10)) (- (- I50 (div (* I49 55) 10)))) 100)))
(assert (not (> (ite (>= (- I52 (div (* I51 55) 10)) 0) (- I52 (div (* I51 55) 10)) (- (- I52 (div (* I51 55) 10)))) 100)))
(assert (not (and B54-F (distinct I54 0) (= I55 0))))
(assert (not (and B55-F B56-F (> (ite (>= (- I56 (div (* I55 55) 10)) 0) (- I56 (div (* I55 55) 10)) (- (- I56 (div (* I55 55) 10)))) 100))))
(assert (not (and B55-F (> (* I55 100) (+ (* I54 15) 100)))))
(assert (not (or (> I44-y (ite B7-F I7-y 0)) (and (> I44-m 10) (= I44-y (ite B7-F I7-y 0))))))
(assert (not (or (> I15-y I14-y) (and (= I15-y I14-y) (> I15-m I14-m)) (and (= I15-y I14-y) (= I15-m I14-m) (> I15-d I14-d)))))
(assert (not (or (distinct I14-y (ite B7-F I7-y 0)) (distinct I14-m 10))))
(assert (not (< I14-y 2025)))
(assert (not (and (distinct I16 0) (= I17 0))))
(assert (not (> (ite (>= (- I18 (div (* I17 55) 10)) 0) (- I18 (div (* I17 55) 10)) (- (- I18 (div (* I17 55) 10)))) 100)))
(assert (not (or (> (* I17 100) (+ (* I16 15) 100)) (> 5148593300 (+ (* I20 15) 100)))))
(assert (not (> (ite (>= (- I19 0) 0) (- I19 0) (- (- I19 0))) 100)))
(assert (not (> (ite (>= (- I21 283172631) 0) (- I21 283172631) (- (- I21 283172631))) 100)))
(assert (not (or (> I13-e-y I14-y) (and (= I13-e-y I14-y) (> I13-e-m I14-m)) (and (= I13-e-y I14-y) (= I13-e-m I14-m) (> I13-e-d I14-d)))))
(assert (not (or (< I13-s-y (- I13-e-y 1)) (and (= I13-s-y (- I13-e-y 1)) (< I13-s-m I13-e-m)) (and (= I13-s-y (- I13-e-y 1)) (= I13-s-m I13-e-m) (< I13-s-d (+ I13-e-d 1))))))
(assert (not (or (> I24-y I23-y) (and (= I24-y I23-y) (> I24-m 10)) (and (= I24-y I23-y) (= I24-m 10) (> I24-d I23-d)))))
(assert (not (distinct I23-y (ite B7-F I7-y 0))))
(assert (not (< I23-y 2025)))
(assert (not (or (and (distinct I25 0) (= I26 0)) (= I28 0))))
(assert (not (> (ite (>= (- I27 (div (* I26 55) 10)) 0) (- I27 (div (* I26 55) 10)) (- (- I27 (div (* I26 55) 10)))) 100)))
(assert (not (or (> (* I26 100) (+ (* I25 15) 100)) (> (* I28 100) (- 561356097320)))))
(assert (not (> (ite (>= (- I29 (div (* I28 55) 10)) 0) (- I29 (div (* I28 55) 10)) (- (- I29 (div (* I28 55) 10)))) 100)))
(assert (not (> (ite (>= (- I30 (- 160)) 0) (- I30 (- 160)) (- (- I30 (- 160)))) 100)))
(assert (not (or (> I22-e-y I23-y) (and (= I22-e-y I23-y) (> I22-e-m 10)) (and (= I22-e-y I23-y) (= I22-e-m 10) (> I22-e-d I23-d)))))
(assert (not (or (< I22-s-y (- I22-e-y 1)) (and (= I22-s-y (- I22-e-y 1)) (< I22-s-m I22-e-m)) (and (= I22-s-y (- I22-e-y 1)) (= I22-s-m I22-e-m) (< I22-s-d (+ I22-e-d 1))))))
(assert (not B57-F))
(assert B7-F)
(assert (not (and B7-F (or (< 2026 I7-y) (= 2026 I7-y)))))
(assert (not (and B7-F (or (< 2027 I7-y) (= 2027 I7-y)))))
(assert (not (and B77-F (not (and B79-F B80-F)))))
(assert (not (and (not B77-F) (or B79-F B80-F))))
(assert (not (and B3-F (= I2-N 0))))
(assert (not (and B3-F (= I3-i I1-i))))
(assert (not (distinct (- 100) (+ I61 I64 I65 I66 I69 I70 I67 I68 I71 89999999999453))))
(set-info :major-phase |control constraints|)
(push 1)
(assert B80-F)
(set-info :status sat)
(check-sat)
(push 1)
(assert B63-F)
(set-info :status sat)
(check-sat)
(push 1)
(assert B77-F)
(set-info :status sat)
(check-sat)
(push 1)
(assert B7-F)
(set-info :status sat)
(check-sat)
(push 1)
(assert B75-F)
(set-info :status sat)
(check-sat)
(push 1)
(assert B57-F)
(set-info :status unsat)
(check-sat)
(pop 1)
(push 1)
(assert B36-F)
(set-info :status sat)
(check-sat)
(push 1)
(assert B6-F)
(set-info :status sat)
(check-sat)
(push 1)
(assert B82-F)
(set-info :status sat)
(check-sat)
(push 1)
(assert B4-F)
(set-info :status sat)
(check-sat)
(push 1)
(assert B38-F)
(set-info :status sat)
(check-sat)
(push 1)
(assert B39-F)
(set-info :status sat)
(check-sat)
(push 1)
(assert B37-F)
(set-info :status sat)
(check-sat)
(push 1)
(assert B83-F)
(set-info :status sat)
(check-sat)
(push 1)
(assert B5-F)
(set-info :status sat)
(check-sat)
(push 1)
(assert B3-F)
(set-info :status sat)
(check-sat)
(push 1)
(assert B8-F)
(set-info :status sat)
(check-sat)
(push 1)
(assert B71-F)
(set-info :status sat)
(check-sat)
(push 1)
(assert B60-F)
(set-info :status unsat)
(check-sat)
(pop 1)
(push 1)
(assert B81-F)
(set-info :status sat)
(check-sat)
(push 1)
(assert B79-F)
(set-info :status sat)
(check-sat)
(push 1)
(assert B68-F)
(set-info :status sat)
(check-sat)
(push 1)
(assert B56-F)
(set-info :status sat)
(check-sat)
(push 1)
(assert B67-F)
(set-info :status sat)
(check-sat)
(push 1)
(assert B70-F)
(set-info :status sat)
(check-sat)
(push 1)
(assert B61-F)
(set-info :status sat)
(check-sat)
(push 1)
(assert B59-F)
(set-info :status unsat)
(check-sat)
(pop 1)
(push 1)
(assert B55-F)
(set-info :status sat)
(check-sat)
(push 1)
(assert B69-F)
(set-info :status sat)
(check-sat)
(push 1)
(assert B65-F)
(set-info :status sat)
(check-sat)
(push 1)
(assert B72-F)
(set-info :status sat)
(check-sat)
(push 1)
(assert B33-F)
(set-info :status sat)
(check-sat)
(push 1)
(assert B62-F)
(set-info :status sat)
(check-sat)
(push 1)
(assert B64-F)
(set-info :status sat)
(check-sat)
(push 1)
(assert B54-F)
(set-info :status sat)
(check-sat)
(push 1)
(assert B66-F)
(set-info :status sat)
(check-sat)
(push 1)
(assert B74-F)
(set-info :status sat)
(check-sat)
(push 1)
(assert B34-F)
(set-info :status sat)
(check-sat)
(exit)

